sat
(:max-memory         18.63
 :memory             18.53
 :nlsat-arith-var    3
 :nlsat-atoms        10
 :nlsat-bool-var     1
 :nlsat-clauses      10
 :nlsat-propagations 10
 :nlsat-stages       4
 :num-allocs         69675
 :rlimit-count       6319
 :time               0.01
 :total-time         0.02)
